
--- Job Safely.Brett-CEE6410-HW#5.gms Start 10/09/24 19:07:12 47.6.0 c2de9d6d WEX-WEI x86 64bit/MS Windows
--- Applying:
    C:\GAMS\47\gmsprmNT.txt
--- GAMS Parameters defined
    Input "C:\Users\bsafe\OneDrive\Documents\CEE 6410 - Water Resources Systems Analysis\HW#5\Safely.Brett-CEE6410-HW#5.gms"
    PageSize 0
    ScrDir "C:\Users\bsafe\OneDrive\Documents\CEE 6410 - Water Resources Systems Analysis\HW#5\225a\"
    SysDir C:\GAMS\47\
    LogOption 3
    ErrMsg 1
    ErrorLog 99
    IDE 1
    LstTitleLeftAligned 1
Licensee: CEE 6410 Water Resources Systems Analysis      G240923|0002AO-GEN
          Utah State University, Utah Water Research Laboratory     DCE3763
          C:\Users\bsafe\OneDrive\Documents\GAMS\gamslice.txt
          License Admin: David Rosenberg, david.rosenberg@usu.edu          
          Other time limited license
          The evaluation period of the license will expire on Dec 22, 2024
Processor information: 1 socket(s), 4 core(s), and 8 thread(s) available
GAMS 47.6.0   Copyright (C) 1987-2024 GAMS Development. All rights reserved
--- Starting compilation
--- Safely.Brett-CEE6410-HW#5.gms(86) 3 Mb
--- Starting execution: elapsed 0:00:00.011
--- Safely.Brett-CEE6410-HW#5.gms(30) 4 Mb
--- Generating LP model ReservoirOperation
--- Safely.Brett-CEE6410-HW#5.gms(84) 4 Mb
---   26 rows  25 columns  73 non-zeroes
--- Range statistics (absolute non-zero finite values)
--- RHS       [min, max] : [ 1.000E+00, 9.000E+00] - Zero values observed as well
--- Bound     [min, max] : [        NA,        NA] - Zero values observed as well
--- Matrix    [min, max] : [ 1.000E+00, 2.200E+00]
--- Executing CPLEX (Solvelink=2): elapsed 0:00:00.063

IBM ILOG CPLEX   47.6.0 c2de9d6d Sep 12, 2024          WEI x86 64bit/MS Window

*** This solver runs with a community license.
--- GMO setup time: 0.00s
--- GMO memory 0.50 Mb (peak 0.50 Mb)
--- Dictionary memory 0.00 Mb
--- Cplex 22.1.1.0 link memory 0.00 Mb (peak 0.00 Mb)
--- Starting Cplex

Version identifier: 22.1.1.0 | 2022-11-27 | 9160aff4d
CPXPARAM_Advance                                 0
CPXPARAM_MIP_Display                             4
CPXPARAM_MIP_Pool_Capacity                       0
CPXPARAM_MIP_Tolerances_AbsMIPGap                0
Tried aggregator 1 time.
LP Presolve eliminated 13 rows and 1 columns.
Reduced LP has 12 rows, 24 columns, and 47 nonzeros.
Presolve time = 0.00 sec. (0.02 ticks)
Initializing dual steep norms . . .

Iteration log . . .
Iteration:     1   Dual infeasibility =             8.300000
Iteration:     9   Dual objective     =            49.650000

--- LP status (1): optimal.
--- Cplex Time: 0.02sec (det. 0.06 ticks)


Optimal solution found
Objective:           31.550000

--- Reading solution for model ReservoirOperation
*** Status: Normal completion
--- Job Safely.Brett-CEE6410-HW#5.gms Stop 10/09/24 19:07:13 elapsed 0:00:00.159
